User:   ajam@DESKTOP-5QB3SQI
Date:   Fri Jul 18 10:33:40 2025
Arch:   x86_64
Pid:    2783
CWD:    /mnt/c/Users/Aidan/Documents/GitHub/MDpractice/Aidan's Folder
Python: 3.11.13
gpaw:   /home/ajam/miniconda3/envs/gpaw/lib/python3.11/site-packages/gpaw
_gpaw:  /home/ajam/miniconda3/envs/gpaw/lib/python3.11/site-packages/
        _gpaw.cpython-311-x86_64-linux-gnu.so
ase:    /home/ajam/miniconda3/envs/gpaw/lib/python3.11/site-packages/ase (version 3.25.0)
numpy:  /home/ajam/miniconda3/envs/gpaw/lib/python3.11/site-packages/numpy (version 1.26.4)
scipy:  /home/ajam/miniconda3/envs/gpaw/lib/python3.11/site-packages/scipy (version 1.16.0)
units:  Angstrom and eV
cores: 1
OpenMP: True
OMP_NUM_THREADS: 1

Reading from data/diamond.gpw
Read dipole, energy, free_energy, magmom, magmoms
Reading input parameters:
  basis: sz(dzp)
  kpts: [2 2 2]
  mode: lcao
  occupations: {name: fermi-dirac,
                width: 0.01}
  xc: PBE

Initialize ...

species:
  C:
    name: Carbon
    id: 4aa54d4b901d75f77cc0ea3eec22967b
    Z: 6.0
    valence: 4
    core: 2
    charge: 0.0
    file: /home/ajam/miniconda3/envs/gpaw/share/gpaw/C.PBE.gz
    compensation charges: {type: gauss,
                           rc: 0.20,
                           lmax: 2}
    cutoffs: {filter: 1.14,
              core: 1.14}
    projectors:
      #              energy  rcut
      - 2s(2.00)   -13.751   0.635
      - 2p(2.00)    -5.284   0.635
      -  s          13.461   0.635
      -  p          21.927   0.635
      -  d           0.000   0.635

    # LCAO basis set for C:
    #   Name: sz(dzp)
    #   File: /home/ajam/miniconda3/envs/gpaw/share/gpaw/C.dzp.basis.gz
    #   Number of radial functions: 2
    #   Number of spherical harmonics: 4
    #     l=0, rc=5.5469 Bohr: 2s-sz confined orbital
    #     l=1, rc=6.6719 Bohr: 2p-sz confined orbital
    #   Number of RI-basis functions 0

Reference energy: -2055.256231  # eV

Spin-paired calculation

Convergence criteria:
 Maximum [total energy] change in last 3 cyles: 0.0005 eV / valence electron
 Maximum integral of absolute [dens]ity change: 0.0001 electrons / valence electron
 Maximum integral of absolute [eigenst]ate change: 4e-08 eV^2 / valence electron
 Maximum number of scf [iter]ations: 333
 (Square brackets indicate name in SCF output, whereas a 'c' in
 the SCF output indicates the quantity has converged.)

Symmetries present (total): 24

  ( 1  0  0)  ( 1  0  0)  ( 1  0 -1)  ( 1  0 -1)  ( 1 -1  0)  ( 1 -1  0)
  ( 0  1  0)  ( 0  0  1)  ( 0  1 -1)  ( 0  0 -1)  ( 0 -1  1)  ( 0 -1  0)
  ( 0  0  1)  ( 0  1  0)  ( 0  0 -1)  ( 0  1 -1)  ( 0 -1  0)  ( 0 -1  1)

[...]

  ( 0  0 -1)  ( 0  0 -1)  ( 0 -1  1)  ( 0 -1  1)  ( 0 -1  0)  ( 0 -1  0)
  ( 1  0 -1)  ( 0  1 -1)  ( 1 -1  0)  ( 0 -1  0)  ( 1 -1  0)  ( 0 -1  1)
  ( 0  1 -1)  ( 1  0 -1)  ( 0 -1  0)  ( 1 -1  0)  ( 0 -1  1)  ( 1 -1  0)

  (-1  1  0)  (-1  1  0)  (-1  0  1)  (-1  0  1)  (-1  0  0)  (-1  0  0)
  (-1  0  1)  (-1  0  0)  (-1  1  0)  (-1  0  0)  (-1  1  0)  (-1  0  1)
  (-1  0  0)  (-1  0  1)  (-1  0  0)  (-1  1  0)  (-1  0  1)  (-1  1  0)
Note: your k-points are not as symmetric as your crystal!

8 k-points: 2 x 2 x 2 Monkhorst-Pack grid
2 k-points in the irreducible part of the Brillouin zone
       k-points in crystal coordinates                weights
   0:     0.25000000    0.25000000   -0.25000000          6/8
   1:     0.25000000    0.25000000    0.25000000          2/8

Wave functions: LCAO
  Diagonalizer: Serial LAPACK
  Atomic Correction: dense with blas
  Data-type: complex

Occupation numbers: Fermi-Dirac:
  width: 0.0100  # eV

Eigensolver
   LCAO using direct dense diagonalizer

Densities:
  Coarse grid: 12*12*12 grid
  Fine grid: 24*24*24 grid
  Total Charge: 0.000000

Density mixing:
  Method: separate
  Backend: pulay
  Linear mixing parameter: 0.05
  old densities: 5
  Damping of long wavelength oscillations: 50

Hamiltonian:
  XC and Coulomb potentials evaluated on a 24*24*24 grid
  Using the PBE Exchange-Correlation functional
  Interpolation: tri-quintic (5. degree polynomial)
  Poisson solver: FastPoissonSolver using
    Stencil: 12*3+1=37 point O(h^6) finite-difference Laplacian
    FFT axes: [0, 1, 2]
    FST axes: []

XC parameters: PBE with 2 nearest neighbor stencil

Total number of cores used: 1

Number of atoms: 2
Number of atomic orbitals: 8
Number of bands in calculation: 8
Number of valence electrons: 8
Bands to converge: occupied

... initialized

Input parameters:
  fixdensity: True
  kpts: [[0.375 0.375 0.75 ]]
  symmetry: off

Initialize ...

species:
  C:
    name: Carbon
    id: 4aa54d4b901d75f77cc0ea3eec22967b
    Z: 6.0
    valence: 4
    core: 2
    charge: 0.0
    file: /home/ajam/miniconda3/envs/gpaw/share/gpaw/C.PBE.gz
    compensation charges: {type: gauss,
                           rc: 0.20,
                           lmax: 2}
    cutoffs: {filter: 1.14,
              core: 1.14}
    projectors:
      #              energy  rcut
      - 2s(2.00)   -13.751   0.635
      - 2p(2.00)    -5.284   0.635
      -  s          13.461   0.635
      -  p          21.927   0.635
      -  d           0.000   0.635

    # LCAO basis set for C:
    #   Name: sz(dzp)
    #   File: /home/ajam/miniconda3/envs/gpaw/share/gpaw/C.dzp.basis.gz
    #   Number of radial functions: 2
    #   Number of spherical harmonics: 4
    #     l=0, rc=5.5469 Bohr: 2s-sz confined orbital
    #     l=1, rc=6.6719 Bohr: 2p-sz confined orbital
    #   Number of RI-basis functions 0

Reference energy: -2055.256231  # eV

Spin-paired calculation

Convergence criteria:
 Maximum [total energy] change in last 3 cyles: 0.0005 eV / valence electron
 Maximum integral of absolute [dens]ity change: 0.0001 electrons / valence electron
 Maximum integral of absolute [eigenst]ate change: 4e-08 eV^2 / valence electron
 Maximum number of scf [iter]ations: 333
 (Square brackets indicate name in SCF output, whereas a 'c' in
 the SCF output indicates the quantity has converged.)

Symmetries present (total): 1

  ( 1  0  0)
  ( 0  1  0)
  ( 0  0  1)

1 k-points: 1 x 1 x 1 Monkhorst-Pack grid + [0.375000,0.375000,0.750000]
1 k-point in the irreducible part of the Brillouin zone
       k-points in crystal coordinates                weights
   0:     0.37500000    0.37500000    0.75000000          1/1

Wave functions: LCAO
  Diagonalizer: Serial LAPACK
  Atomic Correction: dense with blas
  Data-type: complex

Occupation numbers: Fermi-Dirac:
  width: 0.0100  # eV

Eigensolver
   LCAO using direct dense diagonalizer

No density mixing

XC parameters: PBE with 2 nearest neighbor stencil

Total number of cores used: 1

Number of atoms: 2
Number of atomic orbitals: 8
Number of bands in calculation: 8
Number of valence electrons: 8
Bands to converge: occupied

... initialized

Initializing position-dependent things.

Positions:
   0 C      0.000000    0.000000    0.000000    ( 0.0000,  0.0000,  0.0000)
   1 C      0.891750    0.891750    0.891750    ( 0.0000,  0.0000,  0.0000)

Unit cell:
           periodic     x           y           z      points  spacing
  1. axis:    yes    1.783500    1.783500    0.000000    12     0.1716
  2. axis:    yes    1.783500    0.000000    1.783500    12     0.1716
  3. axis:    yes    0.000000    1.783500    1.783500    12     0.1716

  Lengths:   2.522250   2.522250   2.522250
  Angles:   60.000000  60.000000  60.000000

Effective grid spacing dv^(1/3) = 0.1873

     iter     time        total  log10-change:
                         energy   eigst   dens
iter:   1 10:33:40   -23.242044        c      c
iter:   2 10:33:40   -23.242044        c      c
iter:   3 10:33:40   -23.242044c       c      c

Converged after 3 iterations.

Dipole moment: (-3.037577, -3.037577, -3.037577) |e|*Ang

Energy contributions relative to reference atoms: (reference = -2055.256231)

Kinetic:         -3.608962
Potential:       -3.046193
External:        +0.000000
XC:             -16.881455
Entropy (-ST):   -0.000000
Local:           +0.294567
SIC:             +0.000000
Free energy:    -23.242044
Extrapolated:   -23.242044

 Band  Eigenvalues  Occupancy
    0     -1.35895    2.00000
    1     -0.02498    2.00000
    2      2.62007    2.00000
    3      6.18188    2.00000
    4     20.60024    0.00000
    5     25.10313    0.00000
    6     26.61885    0.00000
    7     28.20169    0.00000

Fermi level: 13.39106

Gap: 14.418 eV
Transition (v -> c):
  (s=0, k=0, n=3, [0.38, 0.38, 0.75]) -> (s=0, k=0, n=4, [0.38, 0.38, 0.75])
No difference between direct/indirect transitions
   Timing:                              incl.     excl.
Basic WFS set positions:             0.000     0.000   0.0% |
Basis functions set positions:       0.008     0.008   2.0% ||
DenseAtomicCorrection:               0.000     0.000   0.0% |
Distribute overlap matrix:           0.000     0.000   0.0% |
LCAO WFS Initialize:                 0.035     0.000   0.1% |
 Hamiltonian:                        0.035     0.000   0.0% |
  Atomic:                            0.030     0.000   0.1% |
   XC Correction:                    0.029     0.029   7.5% |--|
  Calculate atomic Hamiltonians:     0.000     0.000   0.1% |
  Communicate:                       0.000     0.000   0.0% |
  Hartree integrate/restrict:        0.000     0.000   0.0% |
  Poisson:                           0.002     0.000   0.0% |
   Communicate from 1D:              0.000     0.000   0.1% |
   Communicate from 2D:              0.000     0.000   0.1% |
   Communicate to 1D:                0.000     0.000   0.1% |
   Communicate to 2D:                0.000     0.000   0.1% |
   FFT 1D:                           0.000     0.000   0.0% |
   FFT 2D:                           0.000     0.000   0.1% |
  XC 3D grid:                        0.003     0.003   0.7% |
  vbar:                              0.000     0.000   0.0% |
P tci:                               0.004     0.004   1.1% |
Potential matrix:                    0.031     0.031   8.0% |--|
Redistribute:                        0.000     0.000   0.0% |
SCF-cycle:                           0.088     0.001   0.3% |
 LCAO eigensolver:                   0.087     0.000   0.0% |
  Calculate projections:             0.000     0.000   0.0% |
  DenseAtomicCorrection:             0.000     0.000   0.1% |
  Distribute overlap matrix:         0.000     0.000   0.0% |
  Orbital Layouts:                   0.000     0.000   0.1% |
  Potential matrix:                  0.086     0.086  22.0% |--------|
  Sum over cells:                    0.001     0.001   0.1% |
ST tci:                              0.012     0.012   3.2% ||
Set symmetry:                        0.002     0.002   0.6% |
Sum over cells:                      0.000     0.000   0.1% |
TCI: Evaluate splines:               0.008     0.008   2.0% ||
mktci:                               0.007     0.007   1.8% ||
Other:                               0.192     0.192  49.4% |-------------------|
Total:                                         0.388 100.0%