User:   xavierduane-tessier@Xaviers-MacBook-Air-2.local
Date:   Thu Sep  4 19:15:22 2025
Arch:   arm64
Pid:    45079
CWD:    /Users/xavierduane-tessier/Downloads/Untitled/MDpractice
Python: 3.13.2
gpaw:   /Users/xavierduane-tessier/anaconda3/envs/MD/lib/python3.13/site-packages/gpaw
_gpaw:  /Users/xavierduane-tessier/anaconda3/envs/MD/lib/python3.13/site-packages/
        _gpaw.cpython-313-darwin.so
ase:    /Users/xavierduane-tessier/anaconda3/envs/MD/lib/python3.13/site-packages/ase (version 3.25.0)
numpy:  /Users/xavierduane-tessier/anaconda3/envs/MD/lib/python3.13/site-packages/numpy (version 2.2.4)
scipy:  /Users/xavierduane-tessier/anaconda3/envs/MD/lib/python3.13/site-packages/scipy (version 1.16.0)
units:  Angstrom and eV
cores: 1
OpenMP: False
OMP_NUM_THREADS: 1

Input parameters:
  kpts: [2 2 2]
  mode: {ecut: 340.0,
         name: pw}
  xc: PBE

System changes: positions, numbers, cell, pbc, initial_charges, initial_magmoms

Initialize ...

species:
  C:
    name: Carbon
    id: 4aa54d4b901d75f77cc0ea3eec22967b
    Z: 6.0
    valence: 4
    core: 2
    charge: 0.0
    file: /Users/xavierduane-tessier/.gpaw/gpaw-setups-24.11.0/C.PBE.gz
    compensation charges: {type: gauss,
                           rc: 0.20,
                           lmax: 2}
    cutoffs: {filter: 1.14,
              core: 1.14}
    projectors:
      #              energy  rcut
      - 2s(2.00)   -13.751   0.635
      - 2p(2.00)    -5.284   0.635
      -  s          13.461   0.635
      -  p          21.927   0.635
      -  d           0.000   0.635

    # Using partial waves for C as LCAO basis

Reference energy: -52409.033889  # eV

Spin-paired calculation

Convergence criteria:
 Maximum [total energy] change in last 3 cyles: 0.0005 eV / valence electron
 Maximum integral of absolute [dens]ity change: 0.0001 electrons / valence electron
 Maximum integral of absolute [eigenst]ate change: 4e-08 eV^2 / valence electron
 Maximum number of scf [iter]ations: 333
 (Square brackets indicate name in SCF output, whereas a 'c' in
 the SCF output indicates the quantity has converged.)

Symmetries present (total): 2

  ( 1  0  0)  ( 1  0  0)
  ( 0  1  0)  ( 0  1  0)
  ( 0  0  1)  ( 0  0 -1)

8 k-points: 2 x 2 x 2 Monkhorst-Pack grid
2 k-points in the irreducible part of the Brillouin zone
       k-points in crystal coordinates                weights
   0:     0.25000000   -0.25000000    0.25000000          4/8
   1:     0.25000000    0.25000000    0.25000000          4/8

Wave functions: Plane wave expansion
  Cutoff energy: 340.000 eV
  Number of coefficients (min, max): 4767, 4779
  Pulay-stress correction: 0.000000 eV/Ang^3 (de/decut=0.000000)
  Using Numpy's FFT
  ScaLapack parameters: grid=1x1, blocksize=None
  Wavefunction extrapolation:
    Improved wavefunction reuse through dual PAW basis

Occupation numbers: Fermi-Dirac:
  width: 0.1000  # eV

Eigensolver
   Davidson(niter=2)

Densities:
  Coarse grid: 40*40*21 grid
  Fine grid: 80*80*42 grid
  Total Charge: 0.000000

Density mixing:
  Method: separate
  Backend: pulay
  Linear mixing parameter: 0.05
  old densities: 5
  Damping of long wavelength oscillations: 50

Hamiltonian:
  XC and Coulomb potentials evaluated on a 80*80*42 grid
  Using the PBE Exchange-Correlation functional
  External potential:
    NoExternalPotential

XC parameters: PBE with 2 nearest neighbor stencil

Total number of cores used: 1

Number of atoms: 51
Number of atomic orbitals: 204
Number of bands in calculation: 127
Number of valence electrons: 204
Bands to converge: occupied

... initialized

Initializing position-dependent things.

Density initialized from atomic densities
Creating initial wave functions:
  127 bands from LCAO basis set

Positions:
   0 C     -6.499602    0.341141    0.000000    ( 0.0000,  0.0000,  0.0000)
   1 C     -4.726983   -1.364562    0.000000    ( 0.0000,  0.0000,  0.0000)
   2 C     -3.742195   -0.341141    0.000000    ( 0.0000,  0.0000,  0.0000)
   3 C     -4.136110    1.023422    0.000000    ( 0.0000,  0.0000,  0.0000)
   4 C     -3.151322    2.046844    0.000000    ( 0.0000,  0.0000,  0.0000)
   5 C     -1.969576   -2.046844    0.000000    ( 0.0000,  0.0000,  0.0000)
   6 C     -2.363492   -0.682281    0.000000    ( 0.0000,  0.0000,  0.0000)
   7 C     -1.378703    0.341141    0.000000    ( 0.0000,  0.0000,  0.0000)
   8 C     -1.772619    1.705703    0.000000    ( 0.0000,  0.0000,  0.0000)
   9 C     -0.787831    2.729125    0.000000    ( 0.0000,  0.0000,  0.0000)
  10 C     -0.196958   -3.752547    0.000000    ( 0.0000,  0.0000,  0.0000)
  11 C     -0.590873   -2.387984    0.000000    ( 0.0000,  0.0000,  0.0000)
  12 C      0.393915   -1.364562    0.000000    ( 0.0000,  0.0000,  0.0000)
  13 C      0.000000    0.000000    0.000000    ( 0.0000,  0.0000,  0.0000)
  14 C      0.984788    1.023422    0.000000    ( 0.0000,  0.0000,  0.0000)
  15 C      0.590873    2.387984    0.000000    ( 0.0000,  0.0000,  0.0000)
  16 C      1.575661    3.411406    0.000000    ( 0.0000,  0.0000,  0.0000)
  17 C      2.166534   -3.070266    0.000000    ( 0.0000,  0.0000,  0.0000)
  18 C      1.772619   -1.705703    0.000000    ( 0.0000,  0.0000,  0.0000)
  19 C      2.757407   -0.682281    0.000000    ( 0.0000,  0.0000,  0.0000)
  20 C      2.363492    0.682281    0.000000    ( 0.0000,  0.0000,  0.0000)
  21 C      3.348280    1.705703    0.000000    ( 0.0000,  0.0000,  0.0000)
  22 C      4.136110   -1.023422    0.000000    ( 0.0000,  0.0000,  0.0000)
  23 C      5.120898   -0.000000    0.000000    ( 0.0000,  0.0000,  0.0000)
  24 C      4.726983    1.364562    0.000000    ( 0.0000,  0.0000,  0.0000)
  25 C      6.499602   -0.341141    0.000000    ( 0.0000,  0.0000,  0.0000)
  26 C     -6.190049   -0.780065    2.460000    ( 0.0000,  0.0000,  0.0000)
  27 C     -7.149583    0.340776    2.460000    ( 0.0000,  0.0000,  0.0000)
  28 C     -3.683003   -1.705891    2.460000    ( 0.0000,  0.0000,  0.0000)
  29 C     -4.642537   -0.585049    2.460000    ( 0.0000,  0.0000,  0.0000)
  30 C     -4.054559    0.730809    2.460000    ( 0.0000,  0.0000,  0.0000)
  31 C     -1.175956   -2.631716    2.460000    ( 0.0000,  0.0000,  0.0000)
  32 C     -2.135490   -1.510874    2.460000    ( 0.0000,  0.0000,  0.0000)
  33 C     -1.547512   -0.195016    2.460000    ( 0.0000,  0.0000,  0.0000)
  34 C     -2.507046    0.925825    2.460000    ( 0.0000,  0.0000,  0.0000)
  35 C     -1.919068    2.241683    2.460000    ( 0.0000,  0.0000,  0.0000)
  36 C      1.331090   -3.557542    2.460000    ( 0.0000,  0.0000,  0.0000)
  37 C      0.371556   -2.436700    2.460000    ( 0.0000,  0.0000,  0.0000)
  38 C      0.959534   -1.120842    2.460000    ( 0.0000,  0.0000,  0.0000)
  39 C      0.000000    0.000000    2.460000    ( 0.0000,  0.0000,  0.0000)
  40 C      0.587978    1.315858    2.460000    ( 0.0000,  0.0000,  0.0000)
  41 C     -0.371556    2.436700    2.460000    ( 0.0000,  0.0000,  0.0000)
  42 C      0.216422    3.752558    2.460000    ( 0.0000,  0.0000,  0.0000)
  43 C      3.466580   -2.046667    2.460000    ( 0.0000,  0.0000,  0.0000)
  44 C      2.507046   -0.925825    2.460000    ( 0.0000,  0.0000,  0.0000)
  45 C      3.095024    0.390033    2.460000    ( 0.0000,  0.0000,  0.0000)
  46 C      2.135490    1.510874    2.460000    ( 0.0000,  0.0000,  0.0000)
  47 C      2.723468    2.826732    2.460000    ( 0.0000,  0.0000,  0.0000)
  48 C      5.602071   -0.535793    2.460000    ( 0.0000,  0.0000,  0.0000)
  49 C      4.642537    0.585049    2.460000    ( 0.0000,  0.0000,  0.0000)
  50 C      7.149583   -0.340776    2.460000    ( 0.0000,  0.0000,  0.0000)

Unit cell:
           periodic     x           y           z      points  spacing
  1. axis:    yes    7.681348    4.434828    0.000000    40     0.1920
  2. axis:    yes    7.681348   -4.434828    0.000000    40     0.1920
  3. axis:    yes    0.000000    0.000000    4.920000    21     0.2343

  Lengths:   8.869656   8.869656   4.920000
  Angles:   90.000000  90.000000  60.000000

Effective grid spacing dv^(1/3) = 0.2153

     iter     time        total  log10-change:
                         energy   eigst   dens
iter:   1 19:15:33  -381.041020
iter:   2 19:15:36  -375.018236   -1.26  -0.80
iter:   3 19:15:39  -361.290890   -1.30  -0.82
iter:   4 19:15:41  -357.077038   -1.61  -0.94
iter:   5 19:15:44  -351.477843   -1.20  -1.01
iter:   6 19:15:47  -350.443818   -2.51  -1.31
iter:   7 19:15:49  -349.913474   -2.07  -1.38
iter:   8 19:15:52  -349.858372   -2.43  -1.63
iter:   9 19:15:54  -349.823034c  -3.18  -1.84
iter:  10 19:15:57  -349.780960c  -3.28  -1.91
iter:  11 19:15:59  -349.803209c  -3.42  -2.03
iter:  12 19:16:01  -349.784812c  -3.75  -2.29
iter:  13 19:16:04  -349.780340c  -3.87  -2.43
iter:  14 19:16:06  -349.778706c  -4.83  -2.60
iter:  15 19:16:09  -349.774960c  -4.37  -2.68
iter:  16 19:16:11  -349.774325c  -5.07  -2.98
iter:  17 19:16:13  -349.774118c  -5.91  -3.15
iter:  18 19:16:16  -349.774026c  -5.51  -3.22
iter:  19 19:16:18  -349.774055c  -6.22  -3.36
iter:  20 19:16:20  -349.774004c  -6.34  -3.48
iter:  21 19:16:23  -349.773962c  -6.59  -3.57
iter:  22 19:16:25  -349.774004c  -6.53  -3.61
iter:  23 19:16:27  -349.773991c  -7.38  -3.80
iter:  24 19:16:29  -349.773974c  -7.14  -3.88
iter:  25 19:16:31  -349.774005c  -7.93c -4.24c

Converged after 25 iterations.

Dipole moment: (13.937209, -2.274977, -0.000000) |e|*Ang

Energy contributions relative to reference atoms: (reference = -52409.033889)

Kinetic:       +626.058593
Potential:     -490.691058
External:        +0.000000
XC:            -486.286537
Entropy (-ST):   -0.330063
Local:           +1.310028
SIC:             +0.000000
Free energy:   -349.939037
Extrapolated:  -349.774005

Showing all kpts
 Kpt  Band  Eigenvalues  Occupancy
  0   100      9.70942    1.95776
  0   101     10.05903    1.16848
  0   102     10.18831    0.55673
  0   103     10.39515    0.09297

  1   100      9.74271    1.94157
  1   101      9.94256    1.63661
  1   102     10.22323    0.42771
  1   103     10.29758    0.22904

Fermi level: 10.09305

Gap: 0.129 eV
Transition (v -> c):
  (s=0, k=0, n=101, [0.25, -0.25, 0.25]) -> (s=0, k=0, n=102, [0.25, -0.25, 0.25])
No difference between direct/indirect transitions

Forces in eV/Ang:
  0 C    -0.66191    0.35294    0.00000
  1 C     0.48884   -0.72874    0.00000
  2 C     0.62088   -0.38739    0.00000
  3 C    -0.06524    0.30517    0.00000
  4 C    -0.13654    0.29194    0.00000
  5 C    -0.92726    0.06970    0.00000
  6 C    -0.65664   -0.35188    0.00000
  7 C     0.08495    0.66584    0.00000
  8 C    -0.32849   -0.77793    0.00000
  9 C     0.29135    0.73860    0.00000
 10 C     0.50872   -0.10043    0.00000
 11 C     0.31316   -0.01659    0.00000
 12 C     0.15469    0.03875    0.00000
 13 C    -0.05337   -0.08952    0.00000
 14 C     0.29713    0.18136    0.00000
 15 C     0.26846   -0.25537    0.00000
 16 C    -0.38582   -0.36169    0.00000
 17 C    -0.00810    0.67084    0.00000
 18 C    -0.42131   -0.74116    0.00000
 19 C     0.43474    0.54027    0.00000
 20 C    -0.18717   -0.31502    0.00000
 21 C     0.10970    0.52296    0.00000
 22 C     0.01687   -0.00078    0.00000
 23 C    -0.53917   -0.60030    0.00000
 24 C    -0.02333    0.71583    0.00000
 25 C     0.05215   -0.76278    0.00000
 26 C     7.49114    0.75975    0.00000
 27 C   -37.68186   -3.17980    0.00000
 28 C    13.25474    0.42528    0.00000
 29 C    12.66127   37.15023    0.00000
 30 C     4.34734    4.31570    0.00000
 31 C     0.68775    1.94422    0.00000
 32 C    -0.23667    0.13321    0.00000
 33 C     0.44293    0.88294    0.00000
 34 C    -0.06143   -1.66414    0.00000
 35 C     2.58274    4.99309    0.00000
 36 C    45.50951   40.15160    0.00000
 37 C     0.19562    8.41003    0.00000
 38 C    -1.02013    0.73356    0.00000
 39 C    -0.37245   -0.97089    0.00000
 40 C     0.70919    1.36908    0.00000
 41 C    -0.19408  -11.38433    0.00000
 42 C   110.38127  -97.48668    0.00000
 43 C    -3.66681   -1.19456    0.00000
 44 C    -0.57827   -3.33728    0.00000
 45 C     2.07949    0.62081    0.00000
 46 C    -3.47488   -2.00464    0.00000
 47 C   -14.21193  -38.24275    0.00000
 48 C     0.45277   -2.84700    0.00000
 49 C    -1.56268   -3.23191    0.00000
 50 C  -136.96848   64.02585    0.00000

System changes: positions

[...]

Density initialized from wave functions

[...]

     iter     time        total  log10-change:
                         energy   eigst   dens
iter:   1 19:16:35  -395.021237   -0.40
iter:   2 19:16:37  -388.945962   -2.02  -1.28
iter:   3 19:16:40  -385.821513   -1.93  -1.51
iter:   4 19:16:42  -384.464922   -2.01  -1.71
iter:   5 19:16:44  -384.087173   -2.43  -1.83
iter:   6 19:16:46  -383.885465   -2.58  -1.93
iter:   7 19:16:48  -383.820223   -3.23  -2.13
iter:   8 19:16:50  -383.793677c  -3.33  -2.32
iter:   9 19:16:52  -383.785438c  -4.04  -2.51
iter:  10 19:16:55  -383.783232c  -4.61  -2.66
iter:  11 19:16:57  -383.780535c  -4.39  -2.75
iter:  12 19:16:59  -383.780477c  -5.17  -2.94
iter:  13 19:17:02  -383.780106c  -5.05  -3.01
iter:  14 19:17:04  -383.780215c  -5.47  -3.16
iter:  15 19:17:07  -383.780606c  -5.55  -3.21
iter:  16 19:17:09  -383.780629c  -6.11  -3.49
iter:  17 19:17:12  -383.780549c  -6.28  -3.71
iter:  18 19:17:14  -383.780519c  -6.97  -3.92
iter:  19 19:17:16  -383.780493c  -7.10  -4.03c
iter:  20 19:17:19  -383.780510c  -7.73c -4.21c

[...]

Gap: 0.158 eV
Transition (v -> c):
  (s=0, k=0, n=101, [0.25, -0.25, 0.25]) -> (s=0, k=0, n=102, [0.25, -0.25, 0.25])
No difference between direct/indirect transitions

[...]

Gap: 0.076 eV
Transition (v -> c):
  (s=0, k=1, n=101, [0.25, 0.25, 0.25]) -> (s=0, k=0, n=102, [0.25, -0.25, 0.25])
Direct/indirect transitions are different
Direct gap: 0.178 eV
Transition at: (s=0, k=0, n=101, [0.25, -0.25, 0.25])

[...]

No gap
No difference between direct/indirect transitions

[...]

     iter     time        total  log10-change:
                         energy   eigst   dens
iter:   1 19:18:57  -409.181420   -0.71
iter:   2 19:18:59  -406.250658   -2.24  -1.36
iter:   3 19:19:02  -403.942342   -1.74  -1.50
iter:   4 19:19:04  -403.692710   -2.93  -1.73
iter:   5 19:19:06  -403.404968   -2.56  -1.87
iter:   6 19:19:09  -403.342137   -3.05  -2.10
iter:   7 19:19:11  -403.320449c  -3.71  -2.24
iter:   8 19:19:13  -403.303667c  -3.58  -2.36
iter:   9 19:19:15  -403.301681c  -4.82  -2.64
iter:  10 19:19:18  -403.299762c  -4.73  -2.70
iter:  11 19:19:20  -403.301270c  -4.77  -2.83
iter:  12 19:19:22  -403.300535c  -5.14  -3.01
iter:  13 19:19:24  -403.300425c  -5.87  -3.15
iter:  14 19:19:27  -403.300163c  -5.27  -3.20
iter:  15 19:19:29  -403.300184c  -6.03  -3.59
iter:  16 19:19:31  -403.300155c  -6.59  -3.69
iter:  17 19:19:34  -403.300133c  -6.64  -3.79
iter:  18 19:19:36  -403.300142c  -7.26  -3.85
iter:  19 19:19:39  -403.300147c  -7.46c -3.92
iter:  20 19:19:42  -403.300150c  -7.68c -3.97
iter:  21 19:19:45  -403.300161c  -7.51c -4.02c

[...]

No gap
No difference between direct/indirect transitions

[...]

     iter     time        total  log10-change:
                         energy   eigst   dens
iter:   1 19:20:39  -411.331871   -1.05
iter:   2 19:20:42  -410.752024   -2.60  -1.64
iter:   3 19:20:44  -410.036908   -2.25  -1.73
iter:   4 19:20:46  -409.877555   -3.05  -1.94
iter:   5 19:20:49  -409.816753   -3.01  -2.12
iter:   6 19:20:51  -409.797896c  -3.77  -2.27
iter:   7 19:20:54  -409.786799c  -3.52  -2.39
iter:   8 19:20:56  -409.782862c  -4.48  -2.65
iter:   9 19:20:58  -409.781933c  -5.18  -2.79
iter:  10 19:21:01  -409.781210c  -4.98  -2.87
iter:  11 19:21:03  -409.781436c  -4.95  -3.01
iter:  12 19:21:05  -409.781240c  -6.01  -3.24
iter:  13 19:21:07  -409.781118c  -5.64  -3.31
iter:  14 19:21:10  -409.781140c  -6.35  -3.57
iter:  15 19:21:12  -409.781121c  -6.61  -3.78
iter:  16 19:21:14  -409.781117c  -7.46c -3.97
iter:  17 19:21:17  -409.781113c  -7.25  -4.05c
iter:  18 19:21:19  -409.781108c  -7.56c -4.25c

[...]

     iter     time        total  log10-change:
                         energy   eigst   dens
iter:   1 19:23:39  -418.909398   -0.60
iter:   2 19:23:42  -416.751565   -2.21  -1.40
iter:   3 19:23:44  -414.353110   -1.72  -1.50
iter:   4 19:23:46  -414.005878   -2.75  -1.71
iter:   5 19:23:49  -413.781689   -2.62  -1.88
iter:   6 19:23:51  -413.724982   -3.03  -2.04
iter:   7 19:23:53  -413.701840c  -3.16  -2.17
iter:   8 19:23:56  -413.684514c  -3.77  -2.39
iter:   9 19:23:58  -413.684506c  -4.60  -2.58
iter:  10 19:24:00  -413.683949c  -4.55  -2.66
iter:  11 19:24:03  -413.684668c  -4.64  -2.80
iter:  12 19:24:05  -413.684033c  -5.31  -3.03
iter:  13 19:24:07  -413.683896c  -6.27  -3.16
iter:  14 19:24:10  -413.683722c  -5.51  -3.21
iter:  15 19:24:12  -413.683724c  -6.07  -3.51
iter:  16 19:24:14  -413.683774c  -6.60  -3.72
iter:  17 19:24:17  -413.683730c  -6.83  -3.83
iter:  18 19:24:19  -413.683710c  -7.41c -3.94
iter:  19 19:24:21  -413.683778c  -7.01  -4.01c
iter:  20 19:24:23  -413.683783c  -7.98c -4.26c

[...]

     iter     time        total  log10-change:
                         energy   eigst   dens
iter:   1 19:24:27  -417.887598   -1.04
iter:   2 19:24:30  -416.930152   -2.68  -1.59
iter:   3 19:24:32  -416.059813   -2.29  -1.73
iter:   4 19:24:35  -415.914167   -3.07  -1.94
iter:   5 19:24:37  -415.830192   -2.90  -2.13
iter:   6 19:24:40  -415.814618c  -3.87  -2.30
iter:   7 19:24:42  -415.808104c  -3.98  -2.42
iter:   8 19:24:44  -415.804156c  -4.16  -2.61
iter:   9 19:24:47  -415.803231c  -5.20  -2.85
iter:  10 19:24:50  -415.802105c  -5.16  -2.90
iter:  11 19:24:53  -415.801871c  -5.58  -3.02
iter:  12 19:24:55  -415.801570c  -5.22  -3.16
iter:  13 19:24:57  -415.801651c  -6.59  -3.39
iter:  14 19:25:00  -415.801784c  -6.31  -3.45
iter:  15 19:25:03  -415.801742c  -6.39  -3.69
iter:  16 19:25:05  -415.801796c  -6.55  -3.90
iter:  17 19:25:11  -415.801770c  -7.22  -4.05c
iter:  18 19:25:14  -415.801753c  -7.70c -4.26c

[...]

     iter     time        total  log10-change:
                         energy   eigst   dens
iter:   1 19:25:20  -421.785418   -0.73
iter:   2 19:25:23  -418.444166   -2.19  -1.40
iter:   3 19:25:26  -417.050979   -2.22  -1.57
iter:   4 19:25:28  -416.498729   -2.62  -1.73
iter:   5 19:25:31  -416.217808   -2.48  -1.88
iter:   6 19:25:33  -416.151918   -2.93  -2.04
iter:   7 19:25:35  -416.115568   -3.55  -2.21
iter:   8 19:25:38  -416.101697c  -4.33  -2.34
iter:   9 19:25:40  -416.091358c  -3.68  -2.46
iter:  10 19:25:42  -416.091574c  -4.90  -2.74
iter:  11 19:25:45  -416.091166c  -5.55  -2.80
iter:  12 19:25:47  -416.090734c  -4.84  -2.88
iter:  13 19:25:49  -416.090530c  -5.53  -3.11
iter:  14 19:25:52  -416.090351c  -5.76  -3.19
iter:  15 19:25:54  -416.090180c  -5.68  -3.28
iter:  16 19:25:56  -416.090304c  -6.13  -3.58
iter:  17 19:25:59  -416.090312c  -7.49c -3.75
iter:  18 19:26:01  -416.090311c  -6.82  -3.81
iter:  19 19:26:04  -416.090323c  -7.00  -3.98
iter:  20 19:26:07  -416.090297c  -7.47c -4.20c

[...]

     iter     time        total  log10-change:
                         energy   eigst   dens
iter:   1 19:26:11  -417.541975   -1.50
iter:   2 19:26:14  -417.168725   -3.08  -1.78
iter:   3 19:26:17  -416.863873   -2.81  -1.91
iter:   4 19:26:20  -416.783336   -3.27  -2.09
iter:   5 19:26:24  -416.743826   -3.04  -2.24
iter:   6 19:26:27  -416.734368c  -4.17  -2.49
iter:   7 19:26:30  -416.730252c  -4.08  -2.61
iter:   8 19:26:33  -416.727925c  -4.78  -2.80
iter:   9 19:26:35  -416.727514c  -5.09  -2.97
iter:  10 19:26:38  -416.727087c  -5.57  -3.09
iter:  11 19:26:40  -416.726827c  -5.70  -3.19
iter:  12 19:26:43  -416.726828c  -6.22  -3.35
iter:  13 19:26:45  -416.726939c  -6.12  -3.45
iter:  14 19:26:48  -416.726936c  -6.84  -3.67
iter:  15 19:26:50  -416.726941c  -7.20  -3.88
iter:  16 19:26:53  -416.726940c  -7.04  -3.99
iter:  17 19:26:56  -416.726930c  -8.18c -4.15c

Converged after 17 iterations.

Dipole moment: (15.600633, 2.229563, -0.000000) |e|*Ang

Energy contributions relative to reference atoms: (reference = -52409.033889)

Kinetic:       +511.136646
Potential:     -448.455119
External:        +0.000000
XC:            -480.642824
Entropy (-ST):   -0.285304
Local:           +1.377019
SIC:             +0.000000
Free energy:   -416.869582
Extrapolated:  -416.726930

Showing all kpts
 Kpt  Band  Eigenvalues  Occupancy
  0   100      9.57533    1.98395
  0   101      9.89703    1.66413
  0   102     10.15296    0.55416
  0   103     10.27126    0.21017

  1   100      9.59745    1.98002
  1   101     10.02051    1.18075
  1   102     10.22232    0.32151
  1   103     10.36811    0.08535

Fermi level: 10.05706

Gap: 0.132 eV
Transition (v -> c):
  (s=0, k=1, n=101, [0.25, 0.25, 0.25]) -> (s=0, k=0, n=102, [0.25, -0.25, 0.25])
Direct/indirect transitions are different
Direct gap: 0.202 eV
Transition at: (s=0, k=1, n=101, [0.25, 0.25, 0.25])

Forces in eV/Ang:
  0 C     0.20430    0.09393    0.00000
  1 C     0.04531    0.02428    0.00000
  2 C    -0.05324   -0.23493    0.00000
  3 C     0.09556   -0.03307    0.00000
  4 C     0.08289    0.14449    0.00000
  5 C     0.22464    0.01149    0.00000
  6 C     0.32421    0.21149    0.00000
  7 C    -0.17305   -0.40317    0.00000
  8 C    -0.02318    0.24936    0.00000
  9 C     0.02103   -0.04388    0.00000
 10 C    -0.00154   -0.16838    0.00000
 11 C    -0.06192    0.16493    0.00000
 12 C    -0.08392   -0.03242    0.00000
 13 C     0.06737   -0.07685    0.00000
 14 C     0.15671   -0.07121    0.00000
 15 C     0.00789    0.10886    0.00000
 16 C     0.07057   -0.16700    0.00000
 17 C    -0.24354   -0.12312    0.00000
 18 C     0.20404   -0.10046    0.00000
 19 C    -0.11052   -0.06103    0.00000
 20 C     0.03575    0.04323    0.00000
 21 C    -0.01763   -0.04105    0.00000
 22 C     0.15422   -0.24193    0.00000
 23 C    -0.12864    0.07390    0.00000
 24 C    -0.02652   -0.19470    0.00000
 25 C     0.09519   -0.04161    0.00000
 26 C    -2.32961   -0.62990    0.00000
 27 C    -5.42976   -2.88270    0.00000
 28 C    -0.98983   -1.14799    0.00000
 29 C     1.17443    1.46741    0.00000
 30 C     0.78450    0.68257    0.00000
 31 C    -1.39242   -0.31704    0.00000
 32 C     1.22737   -0.67759    0.00000
 33 C     0.69119   -0.80799    0.00000
 34 C     0.04440    0.66153    0.00000
 35 C     0.29353    0.07550    0.00000
 36 C     5.40951   -0.71750    0.00000
 37 C    -2.00141   -0.13080    0.00000
 38 C    -0.81115    0.94352    0.00000
 39 C     0.19042    1.40999    0.00000
 40 C     0.37177   -1.46415    0.00000
 41 C    -1.32571   -1.71011    0.00000
 42 C     5.62773   -0.90019    0.00000
 43 C    -0.47160    0.04963    0.00000
 44 C     0.10627   -0.35131    0.00000
 45 C     0.89353    0.60403    0.00000
 46 C    -1.37252   -0.29093    0.00000
 47 C     1.43562    1.45544    0.00000
 48 C    -1.88978   -0.82840    0.00000
 49 C    -0.49792    0.57005    0.00000
 50 C    -0.63705    5.82396    0.00000

System changes: positions

Initializing position-dependent things.

Density initialized from wave functions

Positions:
   0 C     -6.498864    0.330835    0.000000    ( 0.0000,  0.0000,  0.0000)
   1 C     -4.721808   -1.381481    0.000000    ( 0.0000,  0.0000,  0.0000)
   2 C     -3.744078   -0.356688    0.000000    ( 0.0000,  0.0000,  0.0000)
   3 C     -4.141396    1.015965    0.000000    ( 0.0000,  0.0000,  0.0000)
   4 C     -3.152595    2.048355    0.000000    ( 0.0000,  0.0000,  0.0000)
   5 C     -1.982191   -2.056483    0.000000    ( 0.0000,  0.0000,  0.0000)
   6 C     -2.368977   -0.690887    0.000000    ( 0.0000,  0.0000,  0.0000)
   7 C     -1.382190    0.332570    0.000000    ( 0.0000,  0.0000,  0.0000)
   8 C     -1.775713    1.704947    0.000000    ( 0.0000,  0.0000,  0.0000)
   9 C     -0.783309    2.726045    0.000000    ( 0.0000,  0.0000,  0.0000)
  10 C     -0.195950   -3.762771    0.000000    ( 0.0000,  0.0000,  0.0000)
  11 C     -0.601305   -2.402961    0.000000    ( 0.0000,  0.0000,  0.0000)
  12 C      0.382570   -1.380207    0.000000    ( 0.0000,  0.0000,  0.0000)
  13 C     -0.005124   -0.009820    0.000000    ( 0.0000,  0.0000,  0.0000)
  14 C      0.988833    1.010595    0.000000    ( 0.0000,  0.0000,  0.0000)
  15 C      0.596912    2.379179    0.000000    ( 0.0000,  0.0000,  0.0000)
  16 C      1.581436    3.395802    0.000000    ( 0.0000,  0.0000,  0.0000)
  17 C      2.164202   -3.083186    0.000000    ( 0.0000,  0.0000,  0.0000)
  18 C      1.761605   -1.722212    0.000000    ( 0.0000,  0.0000,  0.0000)
  19 C      2.752710   -0.696113    0.000000    ( 0.0000,  0.0000,  0.0000)
  20 C      2.362146    0.664335    0.000000    ( 0.0000,  0.0000,  0.0000)
  21 C      3.349230    1.692124    0.000000    ( 0.0000,  0.0000,  0.0000)
  22 C      4.132916   -1.043842    0.000000    ( 0.0000,  0.0000,  0.0000)
  23 C      5.116701   -0.014041    0.000000    ( 0.0000,  0.0000,  0.0000)
  24 C      4.716816    1.356080    0.000000    ( 0.0000,  0.0000,  0.0000)
  25 C      6.498201   -0.355776    0.000000    ( 0.0000,  0.0000,  0.0000)
  26 C     -5.709070   -0.893144    2.460000    ( 0.0000,  0.0000,  0.0000)
  27 C     -7.372644    1.001297    2.460000    ( 0.0000,  0.0000,  0.0000)
  28 C     -3.660779   -1.353437    2.460000    ( 0.0000,  0.0000,  0.0000)
  29 C     -4.465369   -0.178524    2.460000    ( 0.0000,  0.0000,  0.0000)
  30 C     -3.868791    1.085790    2.460000    ( 0.0000,  0.0000,  0.0000)
  31 C     -1.497948   -2.310220    2.460000    ( 0.0000,  0.0000,  0.0000)
  32 C     -2.284235   -1.221295    2.460000    ( 0.0000,  0.0000,  0.0000)
  33 C     -1.632782    0.030079    2.460000    ( 0.0000,  0.0000,  0.0000)
  34 C     -2.438355    1.208509    2.460000    ( 0.0000,  0.0000,  0.0000)
  35 C     -1.587665    2.336367    2.460000    ( 0.0000,  0.0000,  0.0000)
  36 C      1.604813   -3.272722    2.460000    ( 0.0000,  0.0000,  0.0000)
  37 C     -0.163081   -2.157083    2.460000    ( 0.0000,  0.0000,  0.0000)
  38 C      0.751947   -1.078058    2.460000    ( 0.0000,  0.0000,  0.0000)
  39 C     -0.119503    0.016127    2.460000    ( 0.0000,  0.0000,  0.0000)
  40 C      0.733840    1.102908    2.460000    ( 0.0000,  0.0000,  0.0000)
  41 C     -0.101906    2.206416    2.460000    ( 0.0000,  0.0000,  0.0000)
  42 C      0.498031    3.349788    2.460000    ( 0.0000,  0.0000,  0.0000)
  43 C      2.687710   -2.440905    2.460000    ( 0.0000,  0.0000,  0.0000)
  44 C      2.225052   -1.110749    2.460000    ( 0.0000,  0.0000,  0.0000)
  45 C      3.191336    0.000762    2.460000    ( 0.0000,  0.0000,  0.0000)
  46 C      2.255579    1.138518    2.460000    ( 0.0000,  0.0000,  0.0000)
  47 C      2.748455    2.333468    2.460000    ( 0.0000,  0.0000,  0.0000)
  48 C      5.837786   -0.697796    2.460000    ( 0.0000,  0.0000,  0.0000)
  49 C      4.632453    0.034966    2.460000    ( 0.0000,  0.0000,  0.0000)
  50 C      7.215273   -0.150569    2.460000    ( 0.0000,  0.0000,  0.0000)

Unit cell:
           periodic     x           y           z      points  spacing
  1. axis:    yes    7.681348    4.434828    0.000000    40     0.1920
  2. axis:    yes    7.681348   -4.434828    0.000000    40     0.1920
  3. axis:    yes    0.000000    0.000000    4.920000    21     0.2343

  Lengths:   8.869656   8.869656   4.920000
  Angles:   90.000000  90.000000  60.000000

Effective grid spacing dv^(1/3) = 0.2153

     iter     time        total  log10-change:
                         energy   eigst   dens
iter:   1 19:27:00  -421.296135   -1.05
iter:   2 19:27:02  -418.806153   -2.40  -1.52
iter:   3 19:27:05  -418.057209   -2.49  -1.75
iter:   4 19:27:08  -417.835282   -3.07  -1.92
iter:   5 19:27:12  -417.652929   -2.74  -2.04