User:   xavierduane-tessier@Xaviers-MacBook-Air-2.local
Date:   Fri Jul 18 10:31:48 2025
Arch:   arm64
Pid:    70869
CWD:    /Users/xavierduane-tessier/Downloads/Untitled/MDpractice
Python: 3.13.2
gpaw:   /Users/xavierduane-tessier/anaconda3/envs/MD/lib/python3.13/site-packages/gpaw
_gpaw:  /Users/xavierduane-tessier/anaconda3/envs/MD/lib/python3.13/site-packages/
        _gpaw.cpython-313-darwin.so
ase:    /Users/xavierduane-tessier/anaconda3/envs/MD/lib/python3.13/site-packages/ase (version 3.25.0)
numpy:  /Users/xavierduane-tessier/anaconda3/envs/MD/lib/python3.13/site-packages/numpy (version 2.2.4)
scipy:  /Users/xavierduane-tessier/anaconda3/envs/MD/lib/python3.13/site-packages/scipy (version 1.15.3)
units:  Angstrom and eV
cores: 1
OpenMP: False
OMP_NUM_THREADS: 1

Input parameters:
  basis: sz(dzp)
  kpts: [2 2 2]
  mode: lcao
  occupations: {fixmagmom: False,
                name: fermi-dirac,
                width: 0.01}
  xc: PBE

System changes: positions, numbers, cell, pbc, initial_charges, initial_magmoms

Initialize ...

species:
  C:
    name: Carbon
    id: 4aa54d4b901d75f77cc0ea3eec22967b
    Z: 6.0
    valence: 4
    core: 2
    charge: 0.0
    file: /Users/xavierduane-tessier/.gpaw/gpaw-setups-24.11.0/C.PBE.gz
    compensation charges: {type: gauss,
                           rc: 0.20,
                           lmax: 2}
    cutoffs: {filter: 1.14,
              core: 1.14}
    projectors:
      #              energy  rcut
      - 2s(2.00)   -13.751   0.635
      - 2p(2.00)    -5.284   0.635
      -  s          13.461   0.635
      -  p          21.927   0.635
      -  d           0.000   0.635

    # LCAO basis set for C:
    #   Name: sz(dzp)
    #   File: /Users/xavierduane-tessier/.gpaw/gpaw-setups-24.11.0/C.dzp.basis.gz
    #   Number of radial functions: 2
    #   Number of spherical harmonics: 4
    #     l=0, rc=5.5469 Bohr: 2s-sz confined orbital
    #     l=1, rc=6.6719 Bohr: 2p-sz confined orbital
    #   Number of RI-basis functions 0

Reference energy: -2055.256231  # eV

Spin-paired calculation

Convergence criteria:
 Maximum [total energy] change in last 3 cyles: 0.0005 eV / valence electron
 Maximum integral of absolute [dens]ity change: 0.0001 electrons / valence electron
 Maximum integral of absolute [eigenst]ate change: 4e-08 eV^2 / valence electron
 Maximum number of scf [iter]ations: 333
 (Square brackets indicate name in SCF output, whereas a 'c' in
 the SCF output indicates the quantity has converged.)

Symmetries present (total): 24

  ( 1  0  0)  ( 1  0  0)  ( 1  0 -1)  ( 1  0 -1)  ( 1 -1  0)  ( 1 -1  0)
  ( 0  1  0)  ( 0  0  1)  ( 0  1 -1)  ( 0  0 -1)  ( 0 -1  1)  ( 0 -1  0)
  ( 0  0  1)  ( 0  1  0)  ( 0  0 -1)  ( 0  1 -1)  ( 0 -1  0)  ( 0 -1  1)

[...]

  ( 0  0 -1)  ( 0  0 -1)  ( 0 -1  1)  ( 0 -1  1)  ( 0 -1  0)  ( 0 -1  0)
  ( 1  0 -1)  ( 0  1 -1)  ( 1 -1  0)  ( 0 -1  0)  ( 1 -1  0)  ( 0 -1  1)
  ( 0  1 -1)  ( 1  0 -1)  ( 0 -1  0)  ( 1 -1  0)  ( 0 -1  1)  ( 1 -1  0)

  (-1  1  0)  (-1  1  0)  (-1  0  1)  (-1  0  1)  (-1  0  0)  (-1  0  0)
  (-1  0  1)  (-1  0  0)  (-1  1  0)  (-1  0  0)  (-1  1  0)  (-1  0  1)
  (-1  0  0)  (-1  0  1)  (-1  0  0)  (-1  1  0)  (-1  0  1)  (-1  1  0)
Note: your k-points are not as symmetric as your crystal!

8 k-points: 2 x 2 x 2 Monkhorst-Pack grid
2 k-points in the irreducible part of the Brillouin zone
       k-points in crystal coordinates                weights
   0:     0.25000000    0.25000000   -0.25000000          6/8
   1:     0.25000000    0.25000000    0.25000000          2/8

Wave functions: LCAO
  Diagonalizer: Serial LAPACK
  Atomic Correction: dense with blas
  Data-type: complex

Occupation numbers: Fermi-Dirac:
  width: 0.0100  # eV

Eigensolver
   LCAO using direct dense diagonalizer

Densities:
  Coarse grid: 12*12*12 grid
  Fine grid: 24*24*24 grid
  Total Charge: 0.000000

Density mixing:
  Method: separate
  Backend: pulay
  Linear mixing parameter: 0.05
  old densities: 5
  Damping of long wavelength oscillations: 50

Hamiltonian:
  XC and Coulomb potentials evaluated on a 24*24*24 grid
  Using the PBE Exchange-Correlation functional
  Interpolation: tri-quintic (5. degree polynomial)
  Poisson solver: FastPoissonSolver using
    Stencil: 12*3+1=37 point O(h^6) finite-difference Laplacian
    FFT axes: [np.int64(0), np.int64(1), np.int64(2)]
    FST axes: []

XC parameters: PBE with 2 nearest neighbor stencil

Total number of cores used: 1

Number of atoms: 2
Number of atomic orbitals: 8
Number of bands in calculation: 8
Number of valence electrons: 8
Bands to converge: occupied

... initialized

Initializing position-dependent things.

Density initialized from atomic densities

Positions:
   0 C      0.000000    0.000000    0.000000    ( 0.0000,  0.0000,  0.0000)
   1 C      0.892500    0.892500    0.892500    ( 0.0000,  0.0000,  0.0000)

Unit cell:
           periodic     x           y           z      points  spacing
  1. axis:    yes    1.785000    1.785000    0.000000    12     0.1718
  2. axis:    yes    1.785000    0.000000    1.785000    12     0.1718
  3. axis:    yes    0.000000    1.785000    1.785000    12     0.1718

  Lengths:   2.524371   2.524371   2.524371
  Angles:   60.000000  60.000000  60.000000

Effective grid spacing dv^(1/3) = 0.1874

     iter     time        total  log10-change:
                         energy   eigst   dens
iter:   1 10:31:48   -16.349157        c
iter:   2 10:31:48   -16.356213        c -1.15
iter:   3 10:31:48   -16.424619        c -1.17
iter:   4 10:31:48   -16.424608        c -3.09
iter:   5 10:31:48   -16.424611c       c -3.84
iter:   6 10:31:48   -16.424611c       c -6.33c

Converged after 6 iterations.

Dipole moment: (-3.039972, -3.039972, -3.039972) |e|*Ang

Energy contributions relative to reference atoms: (reference = -2055.256231)

Kinetic:         +2.937629
Potential:       -2.839229
External:        +0.000000
XC:             -16.818413
Entropy (-ST):   -0.000000
Local:           +0.295401
SIC:             +0.000000
Free energy:    -16.424611
Extrapolated:   -16.424611

Showing all kpts
 Kpt  Band  Eigenvalues  Occupancy
  0     2      4.87561    2.00000
  0     3      6.61723    2.00000
  0     4     20.32606    0.00000
  0     5     24.89171    0.00000

  1     2      9.73979    2.00000
  1     3      9.73979    2.00000
  1     4     20.46227    0.00000
  1     5     20.46227    0.00000

Fermi level: 14.71278

Gap: 10.586 eV
Transition (v -> c):
  (s=0, k=1, n=3, [0.25, 0.25, 0.25]) -> (s=0, k=0, n=4, [0.25, 0.25, -0.25])
Direct/indirect transitions are different
Direct gap: 10.722 eV
Transition at: (s=0, k=1, n=3, [0.25, 0.25, 0.25])
Writing to /Users/xavierduane-tessier/Downloads/Untitled/MDpractice/Xavier's Folder/Research/P1_Lattices/data/graphene_bilayer_sc_.gpw (mode='')